39 3 62 20 77 33 88 43 95 48 98 49 96 44 89 34 78 21 63 4 41 76 13 50 79 9 36 65 86 10 28 51 64 74 85 93 97 0 99 90 80 67 53 30 14 81 46 15 66 22 60 7 37 61 83 92 1 87 69 40 12 55 2 24 29 25 6 52 94 71 59 19 75 73 32 18 26 84 47 68 23 8 17 56 38 35 31 11 72 16 82 58 57 70 27 91 54 42 45 5 

